(set-logic QF_S)
(declare-fun var0 () String)
(declare-fun var1 () String)
(declare-fun var2 () String)
(declare-fun var3 () String)
(declare-fun var4 () String)
(assert (= var0 (str.++ "XqqmL" (str.++ var1 (str.++ var2 "")))))
(assert (= var0 (str.++ "Y0Pnj" (str.++ var3 (str.++ var4 "")))))
(check-sat)